p cnf 14 16
-4 -7 -9 -12 0
-1 -13 -15 -16 0
-1 -4 -9 -12 0
-1 -4 -9 -13 0
-3 -4 -7 -9 0
-4 -5 -7 -9 0
-4 -7 -9 -13 0
-3 -7 -15 -16 0
-4 -7 -12 -15 0
-2 -4 -7 -12 0
-4 -7 -8 -12 0
-4 -7 -12 -17 0
-4 -7 -12 -22 0
-7 -13 -16 -22 0
-7 -9 -12 -16 0
-2 -7 -12 -16 0
